20
3
20324
475 216 362
true
0.25
43 6 1 20 39 46 40 31 31 6 36 35 26 30 22 17 8 3 41 21
24 48 30 47 6 46 26 24 25 21 44 4 13 1 1 42 50 22 25 48
34 13 26 16 13 20 48 10 24 17 10 31 36 49 17 34 32 22 1 26
-29 4 -36 58 -17 22 -21 7 89 -1 82 98 -55 -78 34 63 -27 -37 -35 7
0 0 49 0 -60 -77 -18 0 0 0 0 0 0 0 0 0 0 0 0 0
0 0 0 0 0 0 0 0 0 0 0 0 0 0 0 0 81 0 0
0 73 78 0 -43 88 0 0 0 0 0 0 0 -31 0 0 0 0
0 -68 51 0 0 0 0 -22 -92 0 -99 0 0 0 99 0 -4
0 0 5 0 0 -28 0 0 0 -39 64 0 0 0 63 0
0 0 0 0 17 -9 0 20 -86 -80 0 0 0 0 0
0 -30 -45 72 -30 0 0 99 0 8 0 0 42 0
0 0 -97 0 0 0 39 0 0 0 0 0 0
0 58 0 0 0 0 0 0 0 0 0 0
0 0 59 0 0 -54 0 0 -12 0 -7
0 -91 -35 0 0 -89 0 -22 0 0
0 0 0 0 -45 79 0 0 0
0 0 0 75 4 -88 -56 -54
0 -51 0 -7 0 -50 -27
0 0 0 0 0 0
0 34 0 0 0
0 0 0 0
0 57 -47
0 0
0 0 0 0 0 55 0 0 -31 0 0 0 0 0 0 36 0 -52 0
0 0 0 -60 0 35 0 0 67 0 0 -74 0 0 73 27 0 0
0 0 46 0 36 0 0 0 0 0 0 7 0 0 0 0 0
0 -63 -50 0 0 0 0 0 0 0 0 25 29 -91 0 -90
0 -82 0 0 -30 72 0 0 -36 0 0 0 0 0 17
0 0 0 0 0 0 0 0 0 0 -19 56 26 0
0 0 0 0 0 -66 0 56 0 0 0 -70 0
0 0 0 -59 0 -63 0 0 -32 37 0 0
0 0 0 0 0 83 0 0 0 -21 0
0 0 0 0 0 15 0 0 -18 38
0 0 0 0 0 0 80 0 0
0 0 0 0 0 0 0 0
0 -76 0 0 0 0 -56
0 0 50 0 0 0
0 -3 0 0 0
0 0 70 0
0 0 0
0 11
0
0 0 0 0 49 0 0 0 0 22 0 0 0 0 84 0 -65 0
0 0 0 0 0 0 0 0 0 0 0 0 0 0 0 0 -17
0 0 0 0 0 72 0 -32 -99 0 0 0 0 0 0 0
0 0 0 -52 36 0 -87 0 0 0 0 0 0 0 0
0 0 -64 0 0 0 0 49 0 41 0 0 0 0
0 0 0 0 0 0 0 0 0 0 0 18 89
0 0 2 0 0 -59 -82 0 0 0 84 0
0 0 -42 0 0 0 0 59 0 0 74
0 0 61 0 0 -97 0 0 0 0
0 0 14 0 -5 0 0 0 -30
0 0 76 0 0 0 -21 0
0 39 0 15 0 -8 -13
0 0 64 0 0 76
0 0 -51 0 0
0 -49 13 74
0 0 0
0 0
0
0 0 -65 0 -41 0 -55 0 0 0 69 -99 0 0 -29 0 0
0 0 -86 0 0 0 0 71 0 0 0 -45 8 65 0 0
0 0 0 0 0 0 0 0 0 37 0 0 0 -62 0
0 0 0 0 -75 -48 0 0 28 0 57 0 86 0
0 0 0 0 -16 48 0 0 0 0 0 0 0
0 -58 -26 0 0 0 0 0 82 0 0 -34
0 0 0 0 -93 0 0 0 -80 -31 -63
0 -99 0 0 0 0 0 0 0 0
0 0 0 0 43 0 46 0 0
0 0 0 0 0 0 92 -44
0 -77 0 0 0 0 0
0 0 0 0 0 0
0 -9 0 0 -66
0 0 0 0
0 0 0
0 0
0
0 0 0 0 0 0 0 0 26 21 0 0 -80 0 0 0
0 0 31 -3 0 0 -41 0 4 0 0 26 0 0 -53
0 0 0 0 15 0 0 -10 0 0 0 0 0 0
0 0 0 74 -79 40 -20 0 0 -6 0 0 27
0 28 0 5 0 -91 0 -58 0 0 0 0
0 0 0 0 0 0 66 0 15 0 0
0 16 0 0 0 16 12 -54 0 0
0 73 -19 0 0 0 0 0 0
0 0 0 0 0 0 0 -20
0 0 0 -9 -22 96 -75
0 0 0 0 0 0
0 0 0 0 0
0 0 0 0
0 0 0
0 0
0
0 0 0 0 0 0 0 0 0 0 0 -91 0 -78 0
0 0 0 0 0 0 0 0 0 70 0 -66 0 26
0 0 -50 29 0 90 0 0 85 0 0 77 0
0 0 0 0 0 -2 0 0 0 0 -59 0
0 0 -83 0 0 0 37 42 0 0 0
0 -39 0 0 19 16 56 0 0 0
0 0 0 0 0 23 0 0 0
0 0 36 0 0 -90 0 0
0 0 0 22 0 0 -43
0 0 0 -57 0 0
0 0 -37 0 0
0 0 54 0
0 79 0
0 0
0
0 0 0 0 0 0 -32 0 0 0 0 0 -41 0
0 0 -92 0 0 0 0 0 0 0 0 0 0
0 0 0 0 0 44 -30 0 0 2 0 0
0 0 78 0 19 0 0 0 65 0 0
0 0 -20 0 0 -94 29 51 0 0
0 0 0 61 0 0 0 0 -58
0 0 22 40 0 0 51 0
0 0 0 19 0 29 0
0 13 -46 0 0 0
0 -74 0 80 -46
0 -1 0 0
0 0 0
0 0
0
0 0 34 0 0 0 0 34 0 0 0 0 -85
0 94 0 0 -11 95 0 -11 0 0 0 0
0 -11 0 0 0 18 0 0 0 -26 0
0 0 0 0 0 0 0 0 0 0
0 0 -58 0 0 0 0 0 0
0 0 0 0 0 0 0 0
0 0 0 -87 -41 0 0
0 0 0 36 -89 0
0 0 -15 75 0
0 0 -30 -78
0 0 0
0 0
0
0 0 0 0 0 0 -82 -73 0 0 0 -96
0 0 100 0 0 -64 -53 0 0 98 0
0 0 -54 57 0 64 0 0 0 0
0 16 70 0 0 0 0 0 53
0 35 0 0 0 -4 0 0
0 0 0 0 0 -3 0
0 -99 0 0 10 0
0 -2 20 -93 0
0 68 0 0
0 0 0
0 63
0
0 -50 18 0 0 0 86 0 0 0 0
0 0 0 0 0 0 0 0 0 25
0 0 -32 0 0 0 0 0 0
0 -43 0 0 0 8 0 79
0 0 0 0 0 0 90
0 0 0 0 0 0
0 0 0 0 68
0 0 0 0
0 0 0
0 0
0
0 0 0 0 0 48 0 0 0 -86
0 0 0 0 0 99 0 -17 0
0 0 0 0 0 15 0 0
0 0 0 0 0 5 0
0 -1 0 0 2 42
0 0 0 0 0
0 -52 0 -44
0 0 0
0 0
0
0 0 0 0 -68 0 0 -96 0
0 -5 0 0 0 0 0 -99
0 -69 49 0 0 0 0
0 39 0 0 0 0
0 0 -28 0 -100
0 0 0 0
0 0 0
0 66
0
0 0 -27 -9 0 0 0 0
0 0 0 0 0 99 0
0 0 0 0 54 0
0 0 0 0 -73
0 0 0 0
0 0 -29
0 99
0
0 -79 0 0 0 0 17
0 0 0 0 -3 -56
0 0 0 0 0
0 0 0 0
0 0 0
0 0
0
0 0 0 0 0 0
0 0 0 0 0
0 0 -62 0
0 0 -46
0 0
0
0 0 0 0 0
0 0 0 0
0 0 0
0 93
0
0 0 0 0
0 -39 0
0 0
0
0 0 0
0 87
0
0 0
0
0
-230 331 -233 -201 -255 -607 -132 316 -221 207 -468 2 -146 -713 -128 -238 560 -180 654 -418
-7.232292141662867 29.174679487179485 -83.24273504273505 -8.963031914893618 -22.884615384615387 -18.91376811594203 -3.708974358974359 18.320071684587813 -8.392455197132618 18.84453781512605 -23.47878787878788 0.20721966205837172 -6.967236467236468 -250.4392290249433 -47.115864527629235 -8.88888888888889 32.9 -25.454545454545457 232.0370731707317 -14.896672771672774
